
  23    0


   0   9 2 3 4 5 6 7 8 21 22 
   2   6 20 15 14 11 10 9 
   9   5 19 15 13 12 10 
   3   4 18 14 13 9 
   8   3 17 16 10 
   6   1 12 
   4   1 11 
  10   1 9 
   1   1 23
   9   1 23
   5   1 23
   8   1 23
   6   1 23
   2   1 23
   7   1 23
   5   1 23
   4   1 23
   8   1 23
   4   1 23
   8   1 23
   7   1 23
  10   1 23
   0   0 
